50
    1   579   568
    2   164   185
    3   585   539
    4    82    80
    5     2    61
    6   188   222
    7   252   222
    8   173   208
    9   377   350
   10    49    15
   11   513   492
   12   141   168
   13   352   349
   14   184   161
   15   379   357
   16   502   489
   17   347   374
   18   234   285
   19   361   346
   20   314   275
   21   487   534
   22   279   276
   23   570   557
   24   279   283
   25   152   157
   26   120   109
   27   322   339
   28   106   108
   29   136   150
   30   335   308
   31   318   330
   32   326   376
   33   262   244
   34   496   546
   35   209   261
   36   115    78
   37   218   229
   38   167   169
   39   333   381
   40   261   219
   41   111   144
   42   110    62
   43   101   143
   44   229   218
   45   152   160
   46   184   183
   47   395   402
   48   130   142
   49   429   384
   50   186   197
601
